[1728, 1606, 1584, 1420, 1452, 1536, 1404, 1280, 1152, 1242, 1224, 1148, 1148, 1008, 1104, 944, 896, 800, 640, 770, 760, 672, 558, 552, 480, 412, 356, 352, 216, 202, 186, 186, 170, 160, 140, 144, 152, 136, 130, 128, 130, 124, 126, 126, 126, 126, 122, 116, 124, 120, 120, 122, 118, 118, 116, 118, 120, 116, 116, 116, 116, 116, 116, 116, 118, 116, 120, 120, 118, 118, 118, 118, 118, 118, 116, 118, 118, 112, 118, 112, 122, 118, 120, 120, 118, 118, 118, 120, 120, 118, 120, 118, 118, 118, 116, 118, 118, 116, 118, 118, 118, 118, 118, 118, 118, 118, 118, 118, 118, 118, 118, 118, 118, 116, 118, 116, 114, 118, 116, 118, 118, 118, 116, 118, 118, 116, 116, 116, 116, 118, 110, 110, 110, 112, 118, 116, 118, 116, 118, 110, 110, 116, 116, 116, 116, 116, 118, 118, 118, 118, 118, 118, 118, 118, 118, 118, 118, 120, 118, 120, 118, 118, 118, 118, 118, 118, 118, 116, 120, 118, 118, 118, 118, 118, 116, 116, 118, 118, 118, 118, 118, 118, 118, 118, 118, 118, 118, 116, 118, 118, 118, 118, 118, 118, 118, 118, 118, 118, 118, 118]